; benchmark generated from python API
(set-info :status unknown)
(declare-fun x_months () Int)
(declare-fun x_beta () Int)
(assert
 (<= (- 1202) x_months))
(assert
 (>= 1209 x_months))
(assert
 (let ((?x1686 (mod x_months 48)))
 (let ((?x13 ((as const (Array Int Int)) 0)))
 (let ((?x15 (store ?x13 0 31)))
 (let ((?x18 (store ?x15 1 30)))
 (let ((?x20 (store ?x18 2 31)))
 (let ((?x22 (store ?x20 3 30)))
 (let ((?x24 (store ?x22 4 31)))
 (let ((?x26 (store ?x24 5 31)))
 (let ((?x28 (store ?x26 6 30)))
 (let ((?x30 (store ?x28 7 31)))
 (let ((?x32 (store ?x30 8 30)))
 (let ((?x34 (store ?x32 9 31)))
 (let ((?x36 (store ?x34 10 31)))
 (let ((?x39 (store ?x36 11 28)))
 (let ((?x41 (store ?x39 12 31)))
 (let ((?x43 (store ?x41 13 30)))
 (let ((?x45 (store ?x43 14 31)))
 (let ((?x47 (store ?x45 15 30)))
 (let ((?x49 (store ?x47 16 31)))
 (let ((?x51 (store ?x49 17 31)))
 (let ((?x53 (store ?x51 18 30)))
 (let ((?x55 (store ?x53 19 31)))
 (let ((?x57 (store ?x55 20 30)))
 (let ((?x59 (store ?x57 21 31)))
 (let ((?x61 (store ?x59 22 31)))
 (let ((?x63 (store ?x61 23 28)))
 (let ((?x65 (store ?x63 24 31)))
 (let ((?x67 (store ?x65 25 30)))
 (let ((?x69 (store ?x67 26 31)))
 (let ((?x71 (store ?x69 27 30)))
 (let ((?x72 (store ?x71 28 31)))
 (let ((?x74 (store ?x72 29 31)))
 (let ((?x75 (store ?x74 30 30)))
 (let ((?x76 (store ?x75 31 31)))
 (let ((?x78 (store ?x76 32 30)))
 (let ((?x80 (store ?x78 33 31)))
 (let ((?x82 (store ?x80 34 31)))
 (let ((?x84 (store ?x82 35 28)))
 (let ((?x86 (store ?x84 36 31)))
 (let ((?x88 (store ?x86 37 30)))
 (let ((?x90 (store ?x88 38 31)))
 (let ((?x92 (store ?x90 39 30)))
 (let ((?x94 (store ?x92 40 31)))
 (let ((?x96 (store ?x94 41 31)))
 (let ((?x98 (store ?x96 42 30)))
 (let ((?x100 (store ?x98 43 31)))
 (let ((?x102 (store ?x100 44 30)))
 (let ((?x104 (store ?x102 45 31)))
 (let ((?x106 (store ?x104 46 31)))
 (let ((?x108 (store ?x106 47 29)))
 (let ((?x1140 (ite (or (= 22802 (+ x_months 24003)) (= 25202 (+ x_months 24003))) 28 (select ?x108 ?x1686))))
 (let (($x1708 (<= 0 x_beta)))
 (and $x1708 (< x_beta ?x1140)))))))))))))))))))))))))))))))))))))))))))))))))))))))
(assert
 (let ((?x1625 (- (+ (* 2023 12) 1) 24003)))
 (let (($x1635 (= x_months ?x1625)))
 (or (> x_months ?x1625) (and $x1635 (<= 30 x_beta))))))
(assert
 (let ((?x810 (+ x_months 1)))
 (let ((?x786 (mod ?x810 48)))
 (let ((?x919 (ite (> 22803 (+ ?x810 24003)) 1 (ite (<= 25203 (+ ?x810 24003)) (- 1) 0))))
 (let ((?x13 ((as const (Array Int Int)) 0)))
 (let ((?x15 (store ?x13 0 31)))
 (let ((?x18 (store ?x15 1 30)))
 (let ((?x20 (store ?x18 2 31)))
 (let ((?x22 (store ?x20 3 30)))
 (let ((?x24 (store ?x22 4 31)))
 (let ((?x26 (store ?x24 5 31)))
 (let ((?x28 (store ?x26 6 30)))
 (let ((?x30 (store ?x28 7 31)))
 (let ((?x32 (store ?x30 8 30)))
 (let ((?x34 (store ?x32 9 31)))
 (let ((?x36 (store ?x34 10 31)))
 (let ((?x39 (store ?x36 11 28)))
 (let ((?x41 (store ?x39 12 31)))
 (let ((?x43 (store ?x41 13 30)))
 (let ((?x45 (store ?x43 14 31)))
 (let ((?x47 (store ?x45 15 30)))
 (let ((?x49 (store ?x47 16 31)))
 (let ((?x51 (store ?x49 17 31)))
 (let ((?x53 (store ?x51 18 30)))
 (let ((?x55 (store ?x53 19 31)))
 (let ((?x57 (store ?x55 20 30)))
 (let ((?x59 (store ?x57 21 31)))
 (let ((?x61 (store ?x59 22 31)))
 (let ((?x63 (store ?x61 23 28)))
 (let ((?x65 (store ?x63 24 31)))
 (let ((?x67 (store ?x65 25 30)))
 (let ((?x69 (store ?x67 26 31)))
 (let ((?x71 (store ?x69 27 30)))
 (let ((?x72 (store ?x71 28 31)))
 (let ((?x74 (store ?x72 29 31)))
 (let ((?x75 (store ?x74 30 30)))
 (let ((?x76 (store ?x75 31 31)))
 (let ((?x78 (store ?x76 32 30)))
 (let ((?x80 (store ?x78 33 31)))
 (let ((?x82 (store ?x80 34 31)))
 (let ((?x84 (store ?x82 35 28)))
 (let ((?x86 (store ?x84 36 31)))
 (let ((?x88 (store ?x86 37 30)))
 (let ((?x90 (store ?x88 38 31)))
 (let ((?x92 (store ?x90 39 30)))
 (let ((?x94 (store ?x92 40 31)))
 (let ((?x96 (store ?x94 41 31)))
 (let ((?x98 (store ?x96 42 30)))
 (let ((?x100 (store ?x98 43 31)))
 (let ((?x102 (store ?x100 44 30)))
 (let ((?x104 (store ?x102 45 31)))
 (let ((?x106 (store ?x104 46 31)))
 (let ((?x108 (store ?x106 47 29)))
 (let ((?x824 (ite (or (= 22802 (+ ?x810 24003)) (= 25202 (+ ?x810 24003))) 28 (select ?x108 ?x786))))
 (let ((?x818 (- ?x824 1)))
 (let ((?x114 (store (store (store (store ?x13 0 0) 1 31) 2 61) 3 92)))
 (let ((?x122 (store (store (store (store ?x114 4 122) 5 153) 6 184) 7 214)))
 (let ((?x130 (store (store (store (store ?x122 8 245) 9 275) 10 306) 11 337)))
 (let ((?x138 (store (store (store (store ?x130 12 365) 13 396) 14 426) 15 457)))
 (let ((?x146 (store (store (store (store ?x138 16 487) 17 518) 18 549) 19 579)))
 (let ((?x154 (store (store (store (store ?x146 20 610) 21 640) 22 671) 23 702)))
 (let ((?x162 (store (store (store (store ?x154 24 730) 25 761) 26 791) 27 822)))
 (let ((?x170 (store (store (store (store ?x162 28 852) 29 883) 30 914) 31 944)))
 (let ((?x178 (store (store (store (store ?x170 32 975) 33 1005) 34 1036) 35 1067)))
 (let ((?x186 (store (store (store (store ?x178 36 1095) 37 1126) 38 1156) 39 1187)))
 (let ((?x194 (store (store (store (store ?x186 40 1217) 41 1248) 42 1279) 43 1309)))
 (let ((?x202 (store (store (store (store ?x194 44 1340) 45 1370) 46 1401) 47 1432)))
 (let ((?x748 (+ (select ?x202 ?x786) (ite (> 0 x_beta) 0 (ite (> x_beta ?x818) ?x818 x_beta)))))
 (let ((?x917 (+ (+ ?x748 ?x919) 0)))
 (let ((?x966 (+ ?x810 (* (div ?x917 1461) 48))))
 (let ((?x743 (+ (+ ?x966 (- 1 ?x786)) 24003)))
 (let ((?x1107 (+ (select ?x202 1) (ite (> 22803 ?x743) 1 (ite (<= 25203 ?x743) (- 1) 0)))))
 (let ((?x599 (mod ?x917 1461)))
 (let ((?x1531 (ite (> 22803 (+ (+ ?x966 (- 2 ?x786)) 24003)) 1 (ite (<= 25203 (+ (+ ?x966 (- 2 ?x786)) 24003)) (- 1) 0))))
 (let ((?x837 (ite (>= ?x599 (+ (select ?x202 2) ?x1531)) 2 (ite (>= ?x599 ?x1107) 1 0))))
 (let ((?x1020 (ite (> 22803 (+ (+ ?x966 (- 3 ?x786)) 24003)) 1 (ite (<= 25203 (+ (+ ?x966 (- 3 ?x786)) 24003)) (- 1) 0))))
 (let ((?x807 (ite (> 22803 (+ (+ ?x966 (- 4 ?x786)) 24003)) 1 (ite (<= 25203 (+ (+ ?x966 (- 4 ?x786)) 24003)) (- 1) 0))))
 (let ((?x934 (ite (>= ?x599 (+ (select ?x202 4) ?x807)) 4 (ite (>= ?x599 (+ (select ?x202 3) ?x1020)) 3 ?x837))))
 (let ((?x840 (ite (> 22803 (+ (+ ?x966 (- 5 ?x786)) 24003)) 1 (ite (<= 25203 (+ (+ ?x966 (- 5 ?x786)) 24003)) (- 1) 0))))
 (let ((?x913 (ite (> 22803 (+ (+ ?x966 (- 6 ?x786)) 24003)) 1 (ite (<= 25203 (+ (+ ?x966 (- 6 ?x786)) 24003)) (- 1) 0))))
 (let ((?x947 (ite (>= ?x599 (+ (select ?x202 6) ?x913)) 6 (ite (>= ?x599 (+ (select ?x202 5) ?x840)) 5 ?x934))))
 (let ((?x998 (ite (> 22803 (+ (+ ?x966 (- 7 ?x786)) 24003)) 1 (ite (<= 25203 (+ (+ ?x966 (- 7 ?x786)) 24003)) (- 1) 0))))
 (let ((?x991 (ite (> 22803 (+ (+ ?x966 (- 8 ?x786)) 24003)) 1 (ite (<= 25203 (+ (+ ?x966 (- 8 ?x786)) 24003)) (- 1) 0))))
 (let ((?x978 (ite (>= ?x599 (+ (select ?x202 8) ?x991)) 8 (ite (>= ?x599 (+ (select ?x202 7) ?x998)) 7 ?x947))))
 (let ((?x964 (ite (> 22803 (+ (+ ?x966 (- 9 ?x786)) 24003)) 1 (ite (<= 25203 (+ (+ ?x966 (- 9 ?x786)) 24003)) (- 1) 0))))
 (let ((?x976 (ite (> 22803 (+ (+ ?x966 (- 10 ?x786)) 24003)) 1 (ite (<= 25203 (+ (+ ?x966 (- 10 ?x786)) 24003)) (- 1) 0))))
 (let ((?x831 (ite (>= ?x599 (+ (select ?x202 10) ?x976)) 10 (ite (>= ?x599 (+ (select ?x202 9) ?x964)) 9 ?x978))))
 (let ((?x549 (ite (> 22803 (+ (+ ?x966 (- 11 ?x786)) 24003)) 1 (ite (<= 25203 (+ (+ ?x966 (- 11 ?x786)) 24003)) (- 1) 0))))
 (let ((?x1065 (ite (> 22803 (+ (+ ?x966 (- 12 ?x786)) 24003)) 1 (ite (<= 25203 (+ (+ ?x966 (- 12 ?x786)) 24003)) (- 1) 0))))
 (let ((?x803 (ite (>= ?x599 (+ (select ?x202 12) ?x1065)) 12 (ite (>= ?x599 (+ (select ?x202 11) ?x549)) 11 ?x831))))
 (let ((?x719 (ite (> 22803 (+ (+ ?x966 (- 13 ?x786)) 24003)) 1 (ite (<= 25203 (+ (+ ?x966 (- 13 ?x786)) 24003)) (- 1) 0))))
 (let ((?x685 (ite (> 22803 (+ (+ ?x966 (- 14 ?x786)) 24003)) 1 (ite (<= 25203 (+ (+ ?x966 (- 14 ?x786)) 24003)) (- 1) 0))))
 (let ((?x767 (ite (>= ?x599 (+ (select ?x202 14) ?x685)) 14 (ite (>= ?x599 (+ (select ?x202 13) ?x719)) 13 ?x803))))
 (let ((?x550 (ite (> 22803 (+ (+ ?x966 (- 15 ?x786)) 24003)) 1 (ite (<= 25203 (+ (+ ?x966 (- 15 ?x786)) 24003)) (- 1) 0))))
 (let ((?x724 (ite (> 22803 (+ (+ ?x966 (- 16 ?x786)) 24003)) 1 (ite (<= 25203 (+ (+ ?x966 (- 16 ?x786)) 24003)) (- 1) 0))))
 (let ((?x733 (ite (>= ?x599 (+ (select ?x202 16) ?x724)) 16 (ite (>= ?x599 (+ (select ?x202 15) ?x550)) 15 ?x767))))
 (let ((?x700 (ite (> 22803 (+ (+ ?x966 (- 17 ?x786)) 24003)) 1 (ite (<= 25203 (+ (+ ?x966 (- 17 ?x786)) 24003)) (- 1) 0))))
 (let ((?x716 (ite (> 22803 (+ (+ ?x966 (- 18 ?x786)) 24003)) 1 (ite (<= 25203 (+ (+ ?x966 (- 18 ?x786)) 24003)) (- 1) 0))))
 (let ((?x1004 (ite (>= ?x599 (+ (select ?x202 18) ?x716)) 18 (ite (>= ?x599 (+ (select ?x202 17) ?x700)) 17 ?x733))))
 (let ((?x538 (ite (> 22803 (+ (+ ?x966 (- 19 ?x786)) 24003)) 1 (ite (<= 25203 (+ (+ ?x966 (- 19 ?x786)) 24003)) (- 1) 0))))
 (let ((?x802 (ite (> 22803 (+ (+ ?x966 (- 20 ?x786)) 24003)) 1 (ite (<= 25203 (+ (+ ?x966 (- 20 ?x786)) 24003)) (- 1) 0))))
 (let ((?x722 (ite (>= ?x599 (+ (select ?x202 20) ?x802)) 20 (ite (>= ?x599 (+ (select ?x202 19) ?x538)) 19 ?x1004))))
 (let ((?x678 (ite (> 22803 (+ (+ ?x966 (- 21 ?x786)) 24003)) 1 (ite (<= 25203 (+ (+ ?x966 (- 21 ?x786)) 24003)) (- 1) 0))))
 (let ((?x777 (ite (> 22803 (+ (+ ?x966 (- 22 ?x786)) 24003)) 1 (ite (<= 25203 (+ (+ ?x966 (- 22 ?x786)) 24003)) (- 1) 0))))
 (let ((?x778 (ite (>= ?x599 (+ (select ?x202 22) ?x777)) 22 (ite (>= ?x599 (+ (select ?x202 21) ?x678)) 21 ?x722))))
 (let ((?x587 (ite (> 22803 (+ (+ ?x966 (- 23 ?x786)) 24003)) 1 (ite (<= 25203 (+ (+ ?x966 (- 23 ?x786)) 24003)) (- 1) 0))))
 (let ((?x654 (ite (> 22803 (+ (+ ?x966 (- 24 ?x786)) 24003)) 1 (ite (<= 25203 (+ (+ ?x966 (- 24 ?x786)) 24003)) (- 1) 0))))
 (let ((?x642 (ite (>= ?x599 (+ (select ?x202 24) ?x654)) 24 (ite (>= ?x599 (+ (select ?x202 23) ?x587)) 23 ?x778))))
 (let ((?x619 (ite (> 22803 (+ (+ ?x966 (- 25 ?x786)) 24003)) 1 (ite (<= 25203 (+ (+ ?x966 (- 25 ?x786)) 24003)) (- 1) 0))))
 (let ((?x209 (ite (> 22803 (+ (+ ?x966 (- 26 ?x786)) 24003)) 1 (ite (<= 25203 (+ (+ ?x966 (- 26 ?x786)) 24003)) (- 1) 0))))
 (let ((?x779 (ite (>= ?x599 (+ (select ?x202 26) ?x209)) 26 (ite (>= ?x599 (+ (select ?x202 25) ?x619)) 25 ?x642))))
 (let ((?x766 (ite (> 22803 (+ (+ ?x966 (- 27 ?x786)) 24003)) 1 (ite (<= 25203 (+ (+ ?x966 (- 27 ?x786)) 24003)) (- 1) 0))))
 (let ((?x1290 (ite (> 22803 (+ (+ ?x966 (- 28 ?x786)) 24003)) 1 (ite (<= 25203 (+ (+ ?x966 (- 28 ?x786)) 24003)) (- 1) 0))))
 (let ((?x1166 (ite (>= ?x599 (+ (select ?x202 28) ?x1290)) 28 (ite (>= ?x599 (+ (select ?x202 27) ?x766)) 27 ?x779))))
 (let ((?x1162 (ite (> 22803 (+ (+ ?x966 (- 29 ?x786)) 24003)) 1 (ite (<= 25203 (+ (+ ?x966 (- 29 ?x786)) 24003)) (- 1) 0))))
 (let ((?x1333 (ite (> 22803 (+ (+ ?x966 (- 30 ?x786)) 24003)) 1 (ite (<= 25203 (+ (+ ?x966 (- 30 ?x786)) 24003)) (- 1) 0))))
 (let ((?x1338 (ite (>= ?x599 (+ (select ?x202 30) ?x1333)) 30 (ite (>= ?x599 (+ (select ?x202 29) ?x1162)) 29 ?x1166))))
 (let ((?x1081 (ite (> 22803 (+ (+ ?x966 (- 31 ?x786)) 24003)) 1 (ite (<= 25203 (+ (+ ?x966 (- 31 ?x786)) 24003)) (- 1) 0))))
 (let ((?x620 (ite (> 22803 (+ (+ ?x966 (- 32 ?x786)) 24003)) 1 (ite (<= 25203 (+ (+ ?x966 (- 32 ?x786)) 24003)) (- 1) 0))))
 (let ((?x1254 (ite (>= ?x599 (+ (select ?x202 32) ?x620)) 32 (ite (>= ?x599 (+ (select ?x202 31) ?x1081)) 31 ?x1338))))
 (let ((?x415 (ite (> 22803 (+ (+ ?x966 (- 33 ?x786)) 24003)) 1 (ite (<= 25203 (+ (+ ?x966 (- 33 ?x786)) 24003)) (- 1) 0))))
 (let ((?x1355 (ite (> 22803 (+ (+ ?x966 (- 34 ?x786)) 24003)) 1 (ite (<= 25203 (+ (+ ?x966 (- 34 ?x786)) 24003)) (- 1) 0))))
 (let ((?x1362 (ite (>= ?x599 (+ (select ?x202 34) ?x1355)) 34 (ite (>= ?x599 (+ (select ?x202 33) ?x415)) 33 ?x1254))))
 (let ((?x1080 (ite (> 22803 (+ (+ ?x966 (- 35 ?x786)) 24003)) 1 (ite (<= 25203 (+ (+ ?x966 (- 35 ?x786)) 24003)) (- 1) 0))))
 (let ((?x1095 (ite (> 22803 (+ (+ ?x966 (- 36 ?x786)) 24003)) 1 (ite (<= 25203 (+ (+ ?x966 (- 36 ?x786)) 24003)) (- 1) 0))))
 (let ((?x805 (ite (>= ?x599 (+ (select ?x202 36) ?x1095)) 36 (ite (>= ?x599 (+ (select ?x202 35) ?x1080)) 35 ?x1362))))
 (let ((?x671 (ite (> 22803 (+ (+ ?x966 (- 37 ?x786)) 24003)) 1 (ite (<= 25203 (+ (+ ?x966 (- 37 ?x786)) 24003)) (- 1) 0))))
 (let ((?x882 (ite (> 22803 (+ (+ ?x966 (- 38 ?x786)) 24003)) 1 (ite (<= 25203 (+ (+ ?x966 (- 38 ?x786)) 24003)) (- 1) 0))))
 (let ((?x677 (ite (>= ?x599 (+ (select ?x202 38) ?x882)) 38 (ite (>= ?x599 (+ (select ?x202 37) ?x671)) 37 ?x805))))
 (let ((?x598 (ite (> 22803 (+ (+ ?x966 (- 39 ?x786)) 24003)) 1 (ite (<= 25203 (+ (+ ?x966 (- 39 ?x786)) 24003)) (- 1) 0))))
 (let ((?x650 (ite (> 22803 (+ (+ ?x966 (- 40 ?x786)) 24003)) 1 (ite (<= 25203 (+ (+ ?x966 (- 40 ?x786)) 24003)) (- 1) 0))))
 (let ((?x1361 (ite (>= ?x599 (+ (select ?x202 40) ?x650)) 40 (ite (>= ?x599 (+ (select ?x202 39) ?x598)) 39 ?x677))))
 (let ((?x648 (ite (> 22803 (+ (+ ?x966 (- 41 ?x786)) 24003)) 1 (ite (<= 25203 (+ (+ ?x966 (- 41 ?x786)) 24003)) (- 1) 0))))
 (let ((?x1154 (ite (> 22803 (+ (+ ?x966 (- 42 ?x786)) 24003)) 1 (ite (<= 25203 (+ (+ ?x966 (- 42 ?x786)) 24003)) (- 1) 0))))
 (let ((?x597 (ite (>= ?x599 (+ (select ?x202 42) ?x1154)) 42 (ite (>= ?x599 (+ (select ?x202 41) ?x648)) 41 ?x1361))))
 (let ((?x1367 (ite (> 22803 (+ (+ ?x966 (- 43 ?x786)) 24003)) 1 (ite (<= 25203 (+ (+ ?x966 (- 43 ?x786)) 24003)) (- 1) 0))))
 (let ((?x603 (ite (> 22803 (+ (+ ?x966 (- 44 ?x786)) 24003)) 1 (ite (<= 25203 (+ (+ ?x966 (- 44 ?x786)) 24003)) (- 1) 0))))
 (let ((?x1375 (ite (>= ?x599 (+ (select ?x202 44) ?x603)) 44 (ite (>= ?x599 (+ (select ?x202 43) ?x1367)) 43 ?x597))))
 (let ((?x305 (ite (> 22803 (+ (+ ?x966 (- 45 ?x786)) 24003)) 1 (ite (<= 25203 (+ (+ ?x966 (- 45 ?x786)) 24003)) (- 1) 0))))
 (let ((?x215 (ite (> 22803 (+ (+ ?x966 (- 46 ?x786)) 24003)) 1 (ite (<= 25203 (+ (+ ?x966 (- 46 ?x786)) 24003)) (- 1) 0))))
 (let ((?x1335 (ite (>= ?x599 (+ (select ?x202 46) ?x215)) 46 (ite (>= ?x599 (+ (select ?x202 45) ?x305)) 45 ?x1375))))
 (let ((?x318 (ite (> 22803 (+ (+ ?x966 (- 47 ?x786)) 24003)) 1 (ite (<= 25203 (+ (+ ?x966 (- 47 ?x786)) 24003)) (- 1) 0))))
 (let ((?x257 (ite (>= ?x599 (+ (select ?x202 47) ?x318)) 47 ?x1335)))
 (let ((?x216 (+ ?x966 (- ?x257 ?x786))))
 (let ((?x555 (+ ?x216 24003)))
 (let ((?x258 (+ (select ?x202 ?x257) (ite (> 22803 ?x555) 1 (ite (<= 25203 ?x555) (- 1) 0)))))
 (let ((?x259 (- ?x599 ?x258)))
 (let ((?x1058 (ite (or (= 22802 ?x555) (= 25202 ?x555)) 28 (select ?x108 ?x257))))
 (let (($x638 (>= 0 (ite (= 1 (ite (>= ?x259 ?x1058) 1 0)) (- ?x259 ?x1058) ?x259))))
 (let ((?x1075 (- (+ (* 2023 12) 3) 24003)))
 (let ((?x1077 (ite (>= ?x259 ?x1058) 1 0)))
 (let ((?x1070 (+ ?x216 ?x1077)))
 (or (< ?x1070 ?x1075) (and (= ?x1070 ?x1075) $x638))))))))))))))))))))))))))))))))))))))))))))))))))))))))))))))))))))))))))))))))))))))))))))))))))))))))))))))))))))))))))))))))))))))))))))))))))))))))))
(assert
 (let ((?x1625 (- (+ (* 2023 12) 1) 24003)))
(let (($x1635 (= x_months ?x1625)))
(and $x1635 (= 30 x_beta)))))
(check-sat)
